/*********************************************
Data For Question One Instance One.
 *********************************************/

P=6;
S=14;

C= [402,	473,	544,	447,	329,	351];
 

f=2360;

h= [  0.68,	0.45,	0.40,	0.49,	0.54,	1];


p0=1;

Istart= [1022,458, 342, 89, 345, 954];



D = [[ 123,   0, 265,   0,  0,  0,  0,  0, 265, 265,  0,   0,265,265],
  [    75, 150,   0, 150,  0,  0,  0,150, 150,   0,150, 150,  0,  0],
  [     0, 150,   0,   0,  0,300,300,  0,   0,   0,  0,   0,300,  0],
  [   150, 325,   0, 325,325,  0,  0,150,   0,   0,325, 325,  0,150],
  [     0,   0,  50,  50,  0, 90,120,  0,   0,   0,120,   0,120,  0],
  [    167,   0, 235,   0,  0,  0,  0,  0, 235,   0,  0, 470,  0,235]];